ATOMIC_SPECIES
Si   1.0000 Si.pz-vbc.UPF upf

NUMERICAL_ORBITAL
Si_lda_8.0au_50Ry_2s2p1d

LATTICE_CONSTANT
10.2000000000

LATTICE_VECTORS
        0.5000000000        0.5000000000        0.0000000000
        0.5000000000        0.0000000000        0.5000000000
        0.0000000000        0.5000000000        0.5000000000

ATOMIC_POSITIONS
Cartesian

Si #label
0.0000   #magnetism
2 #number of atoms
        0.0000000000        0.0000000000        0.0000000000 m 0 0 0 v        0.0000000000        0.0000000000        0.0000000000
        0.2408540100        0.2502769582        0.2476186218 m 1 1 1 v       -0.0006414948       -0.0010707950       -0.0000735443
