ATOMIC_SPECIES
Si   1.0000 Si.pz-vbc.UPF upf

NUMERICAL_ORBITAL
Si_lda_8.0au_50Ry_2s2p1d

LATTICE_CONSTANT
10.2000000000

LATTICE_VECTORS
        0.5000000000        0.5000000000        0.0000000000
        0.5000000000        0.0000000000        0.5000000000
        0.0000000000        0.5000000000        0.5000000000

ATOMIC_POSITIONS
Cartesian

Si #label
0.0000   #magnetism
2 #number of atoms
        0.0000000000        0.0000000000        0.0000000000 m 0 0 0 v        0.0000000000        0.0000000000        0.0000000000
        0.2688786437        0.2455822604        0.2596820751 m 1 1 1 v        0.0011667093        0.0002403523        0.0003801925
