INPUT_PARAMETERS
#Parameters	(General)
calculation     relax
pseudo_dir		../
orbital_dir		../
#Parameters (Accuracy)
ecutwfc			 60 ###Energy cutoff needs to be tested to ensure your calculation is reliable.[1]
scf_nmax		100
scf_thr         1e-6
basis_type		lcao
#Parameters (Relaxation)
cal_force       True
force_thr_ev    0.01
relax_method    bfgs_trad
relax_nmax      100
#Parameters (Output)
out_chg         -1
out_stru        True

### [1] Energy cutoff determines the quality of numerical quadratures in your calculations.
###     So it is strongly recommended to test whether your result (such as converged SCF energies) is
###     converged with respect to the energy cutoff.
