ATOMIC_SPECIES
Y 88.905900 Y-sp.PD04.PBE.UPF
Zn 65.390000 Zn_pd_04_.UPF
S 32.065000 S.PD03.PBE.UPF

LATTICE_CONSTANT
1.889726

LATTICE_VECTORS
    7.80102404158    -0.00000000000    -0.00000000000
    3.90051202079     6.75588499554     0.00000000000
    3.90051202079     2.25196166518     6.36950945768

ATOMIC_POSITIONS
Cartesian
Y
0.000000
4
    5.85076803118     5.62990416295     3.98094341105 1 1 1 
    7.80102404158     2.25196166518     3.98094341105 1 1 1 
    7.80102404158     4.50392333036     0.79618868221 1 1 1 
    9.75128005197     5.62990416295     3.98094341105 1 1 1 
Zn
0.000000
2
    3.90051202079     2.25196166518     1.59237736442 1 1 1 
    0.00000000000     0.00000000000     0.00000000000 1 1 1 
S
0.000000
8
    9.72768195425     3.39156236192     2.39819674493 1 1 1 
    7.80102014107     6.72863851135     2.39819674493 1 1 1 
    7.80102014107     4.50392107840     5.54442231106 1 1 1 
    5.87435832789     3.39156236192     2.39819674493 1 1 1 
    9.77487814970     7.86824596398     5.56369007717 1 1 1 
   11.70153996288     4.53116981455     5.56369007717 1 1 1 
   11.70153996288     6.75588724750     2.41746451104 1 1 1 
   13.62820177606     7.86824596398     5.56369007717 1 1 1 
